Traveling Salesman Problem/TSP_generados/Aleatorio1620391013_12.tsp
NAME: Aleatorio1620391013_12.tsp
COMMENT: Randomly generated scenario
TYPE: TSP
DIMENSION: 12
EDGE_WEIGHT_TYPE: ATT
NODE_COORD_SECTION
1 41.62 24.22
2 19.74 18.59
3 28.55 42.4
4 23.17 39.27
5 39.28 44.3
6 5.89 0.95
7 28.07 12.84
8 14.6 43.63
9 37.48 4.37
10 36.55 16.72
11 47.31 24.1
12 36.12 35.18
