Traveling Salesman Problem/TSP_generados/Aleatorio1620391013_12.opt.tour
NAME: Aleatorio1620391013_12.opt.tour
COMMENT: Optimal solution for Aleatorio1620391013_12 (165.08108689995225)
TYPE: TOUR
DIMENSION: 12
TOUR_SECTION
1 10 9 7 6 2 8 4 3 5 12 11
-1
EOF
